Version identifier: 12.10.0.0 | 2019-11-26 | 843d4de
CPXPARAM_WorkMem                                 16384
CPXPARAM_MIP_Limits_TreeMemory                   24576
Tried aggregator 2 times.
MIP Presolve eliminated 19 rows and 0 columns.
MIP Presolve added 36 rows and 0 columns.
Aggregator did 60 substitutions.
Reduced MIP has 99 rows, 100 columns, and 400 nonzeros.
Reduced MIP has 100 binaries, 0 generals, 0 SOSs, and 0 indicators.
Presolve time = 0,00 sec. (0,83 ticks)
Found incumbent of value 262,000000 after 0,00 sec. (0,95 ticks)
Probing time = 0,00 sec. (0,29 ticks)
Tried aggregator 1 time.
Detecting symmetries...
Reduced MIP has 99 rows, 100 columns, and 400 nonzeros.
Reduced MIP has 100 binaries, 0 generals, 0 SOSs, and 0 indicators.
Presolve time = 0,00 sec. (0,32 ticks)
Probing time = 0,00 sec. (0,29 ticks)
Clique table members: 350.
MIP emphasis: balance optimality and feasibility.
MIP search method: dynamic search.
Parallel mode: deterministic, using up to 16 threads.
Root relaxation solution time = 0,00 sec. (0,16 ticks)

        Nodes                                         Cuts/
   Node  Left     Objective  IInf  Best Integer    Best Bound    ItCnt     Gap

*     0+    0                          262,0000        0,0000           100,00%
*     0+    0                          250,0000        0,0000           100,00%
*     0+    0                          240,0000        0,0000           100,00%
      0     0      141,0000    60      240,0000      141,0000       27   41,25%
      0     0      141,0000    60      240,0000     Cuts: 125       76   41,25%
*     0+    0                          239,0000      141,0000            41,00%
      0     0      141,0000    60      239,0000     Cuts: 125      142   41,00%
*     0+    0                          226,0000      141,0000            37,61%
Detecting symmetries...
      0     2      141,0000    58      226,0000      147,0000      142   34,96%
Elapsed time = 0,05 sec. (12,44 ticks, tree = 0,02 MB, solutions = 5)

Clique cuts applied:  31
Cover cuts applied:  95
Flow cuts applied:  1
Mixed integer rounding cuts applied:  3
Zero-half cuts applied:  2

Root node processing (before b&c):
  Real time             =    0,05 sec. (12,40 ticks)
Parallel b&c, 16 threads:
  Real time             =    0,05 sec. (11,50 ticks)
  Sync time (average)   =    0,02 sec.
  Wait time (average)   =    0,00 sec.
                          ------------
Total (root+branch&cut) =    0,10 sec. (23,90 ticks)
